
  32    4
  10   10   10   10

   0   0   0   0   0   7 2 4 5 6 7 8 9 
   8   1   1   1   0   2 10 3 
   1   9   0   3   1   3 14 12 11 
   9   4   7   2   0   3 14 12 10 
   1   0   4   5   6   3 13 12 10 
   8   0   3   5   6   2 12 11 
   5   4   3   4   0   2 13 12 
  10   3   3   0   2   3 16 15 14 
   1   4   6   6   0   3 16 15 14 
   4   0   6   1   1   3 17 16 15 
   7   0   2   5   3   2 16 13 
   6   0   4   2   6   3 21 17 16 
   3   3   0   7   6   3 23 18 15 
  10   7   2   3   0   4 21 20 19 17 
   8   5   4   4   0   4 25 21 20 19 
   5   2   4   0   4   2 25 18 
   8   3   0   4   6   5 26 25 24 23 22 
   4   6   6   0   4   2 20 19 
   2   0   4   4   2   3 26 24 22 
   9   0   4   4   6   2 31 26 
   7   3   0   2   3   1 24 
   6   6   0   6   4   3 31 30 28 
   8   0   5   2   3   3 31 30 28 
   2   2   0   3   2   2 30 27 
   2   0   4   4   9   2 30 27 
   7   2   3   5   0   2 30 28 
   3   0   5   3   3   2 31 29 
  10   3   0   3   5   1 29 
   9   7   2   0   2   1 32
   6   0   6   6   3   1 32
   1   2   0  10   5   1 32
   0   0   0   0   0   0 
